<number of tasks>
50

<cycle time>
1000

<order strength>
0.199


<task times>
1 494
2 458
3 148
4 45
5 567
6 211
7 231
8 161
9 225
10 505
11 202
12 319
13 241
14 216
15 227
16 259
17 443
18 338
19 430
20 305
21 119
22 158
23 177
24 78
25 58
26 140
27 43
28 80
29 189
30 198
31 206
32 149
33 263
34 134
35 57
36 190
37 469
38 151
39 76
40 44
41 22
42 567
43 205
44 247
45 324
46 270
47 137
48 180
49 287
50 142

<precedence relations>
1,14
2,9
2,12
3,5
3,7
3,8
3,13
3,29
3,32
4,6
4,10
4,11
5,14
6,14
7,14
8,14
9,16
10,15
10,18
10,19
12,17
12,21
13,20
13,46
14,22
14,23
14,24
14,25
15,26
16,27
19,28
19,35
19,49
20,30
21,28
21,29
22,34
22,40
25,35
26,32
27,31
30,33
31,36
32,38
33,37
33,40
34,39
35,45
36,42
37,41
38,43
38,45
38,46
39,44
39,47
41,49
42,48
46,50

<end>
